data/solutions/planning/wellformed/moderate/weighting/wellformed_moderate_instance79_cplex.sol
Elapsed time: 0.6
Nodes explored: 2698
Nodes left: 0
Relative gap: 0.0
Upper bound: 16443.0
Lower bound: 16443
C[0]=261.0
C[1]=261.0
C[2]=261.0
C[3]=261.0
C[4]=261.0
C[5]=261.0
y[0]=3
y[1]=4
y[2]=1
y[3]=2
y[4]=2
y[5]=1
y[6]=1
y[7]=4
y[8]=1
y[9]=3
y[10]=0
y[11]=2
y[12]=3
y[13]=4
y[14]=1
y[15]=4
y[16]=5
y[17]=5
y[18]=0
y[19]=5
y[20]=2
y[21]=0
y[22]=5
y[23]=0
y[24]=0
y[25]=3
y[26]=2
y[27]=1
y[28]=5
y[29]=4
