data/solutions/planning/wellformed/moderate/weighting/wellformed_moderate_instance79_cplex.log

Log started (V12.6.3.0) Fri Mar  2 13:15:14 2018

New value for default parallel thread count: 1

Problem '/tmp/tmpWbmrMD.pyomo.lp' read.
Read time = 0.00 sec. (0.01 ticks)

Problem name         : /tmp/tmpWbmrMD.pyomo.lp
Objective sense      : Minimize
Variables            :     187  [Nneg: 7,  Binary: 180]
Objective nonzeros   :       6
Linear constraints   :      42  [Less: 5,  Equal: 37]
  Nonzeros           :     377
  RHS nonzeros       :      31

Variables            : Min LB: 0.000000         Max UB: 1.000000       
Objective nonzeros   : Min   : 1.000000         Max   : 32.00000       
Linear constraints   :
  Nonzeros           : Min   : 1.000000         Max   : 100.0000       
  RHS nonzeros       : Min   : 1.000000         Max   : 1.000000       
Found incumbent of value 50112.000000 after 0.00 sec. (0.02 ticks)
Tried aggregator 2 times.
MIP Presolve eliminated 1 rows and 1 columns.
Aggregator did 2 substitutions.
Reduced MIP has 39 rows, 184 columns, and 372 nonzeros.
Reduced MIP has 180 binaries, 0 generals, 0 SOSs, and 0 indicators.
Presolve time = 0.00 sec. (0.46 ticks)
Probing fixed 0 vars, tightened 21 bounds.
Probing time = 0.00 sec. (0.42 ticks)
Tried aggregator 1 time.
Reduced MIP has 39 rows, 184 columns, and 372 nonzeros.
Reduced MIP has 180 binaries, 4 generals, 0 SOSs, and 0 indicators.
Presolve time = 0.00 sec. (0.26 ticks)
Probing time = 0.00 sec. (0.21 ticks)
Clique table members: 30.
MIP emphasis: balance optimality and feasibility.
MIP search method: dynamic search.
Parallel mode: none, using 1 thread.
Root relaxation solution time = 0.00 sec. (0.32 ticks)

        Nodes                                         Cuts/
   Node  Left     Objective  IInf  Best Integer    Best Bound    ItCnt     Gap

*     0+    0                        50112.0000        0.0000           100.00%
      0     0    16443.0000     9    50112.0000    16443.0000       48   67.19%
      0     0    16443.0000    14    50112.0000      Cuts: 11       63   67.19%
*     0+    0                        19789.0000    16443.0000            16.91%
      0     0    16443.0000    15    19789.0000       Cuts: 7       77   16.91%
*     0+    0                        17902.0000    16443.0000             8.15%
      0     2    16443.0000     9    17902.0000    16443.0000       77    8.15%
Elapsed time = 0.01 sec. (7.22 ticks, tree = 0.01 MB, solutions = 3)
*   100+   64                        17808.0000    16443.0000             7.67%
*   100+   64                        17727.0000    16443.0000             7.24%
*   100+   64                        17591.0000    16443.0000             6.53%
*   130+   94                        17507.0000    16443.0000             6.08%
*   140+  102                        17503.0000    16443.0000             6.06%
*   184   129      integral     0    17020.0000    16443.0000      524    3.39%
*   188   129      integral     0    17005.0000    16443.0000      532    3.30%
*   210   127      integral     0    16854.0000    16443.0000      604    2.44%
*   230+  129                        16744.0000    16443.0000             1.80%
*   235   130      integral     0    16702.0000    16443.0000      679    1.55%
*   609   310      integral     0    16651.0000    16443.0000     1727    1.25%
*   610   301      integral     0    16623.0000    16443.0000     1728    1.08%
*  1296   253      integral     0    16534.0000    16443.0000     3693    0.55%
*  1396+  221                        16523.0000    16443.0000             0.48%
*  1417+  220                        16505.0000    16443.0000             0.38%
   1517   262    16492.0000     8    16505.0000    16443.0000     4145    0.38%
   1518   263    16492.0000     8    16505.0000    16443.0000     4146    0.38%
   1519   264    16492.0000     8    16505.0000    16443.0000     4147    0.38%
   1520   265    16492.0000     8    16505.0000    16443.0000     4148    0.38%
   1521   266    16492.0000     6    16505.0000    16443.0000     4153    0.38%
   1522   267    16492.0000     5    16505.0000    16443.0000     4157    0.38%
   1523   268    16492.0000     6    16505.0000    16443.0000     4161    0.38%
   1524   269    16492.0000     6    16505.0000    16443.0000     4162    0.38%
   1525   270    16492.0000     6    16505.0000    16443.0000     4165    0.38%
*  1717+  365                        16504.0000    16443.0000             0.37%
*  1817+  347                        16474.0000    16443.0000             0.19%
*  2697     1      integral     0    16443.0000    16443.0000     5567    0.00%

Gomory fractional cuts applied:  1

Root node processing (before b&c):
  Real time             =    0.01 sec. (7.24 ticks)
Sequential b&c:
  Real time             =    0.58 sec. (462.55 ticks)
                          ------------
Total (root+branch&cut) =    0.59 sec. (469.79 ticks)

Solution pool: 21 solutions saved.

MIP - Integer optimal solution:  Objective =  1.6443000000e+04
Solution time =    0.59 sec.  Iterations = 5567  Nodes = 2698
Deterministic time = 469.79 ticks  (799.35 ticks/sec)


Incumbent solution written to file '/tmp/tmp0ONZze.cplex.sol'.
